c File: flat50_3_0.col
c
c SOURCE: Joseph Culberson (joe@cs.ualberta.ca)
c DESCRIPTION: Quasi-random coloring problem
c              generated with flatness = 0
c                             probability = 0.139
c                             known coloring = 3
c                             random seed = 1300
c              Creation Date:  Tue Jun  9 12:05:59 1998
c Maximum degree = 8 Minimum degree = 0
c p edge 50 115
c cnf created by edge2cnf
p cnf 150 545
-1 -2 0
-1 -3 0
-2 -3 0
1 2 3 0
-4 -5 0
-4 -6 0
-5 -6 0
4 5 6 0
-7 -8 0
-7 -9 0
-8 -9 0
7 8 9 0
-10 -11 0
-10 -12 0
-11 -12 0
10 11 12 0
-13 -14 0
-13 -15 0
-14 -15 0
13 14 15 0
-16 -17 0
-16 -18 0
-17 -18 0
16 17 18 0
-19 -20 0
-19 -21 0
-20 -21 0
19 20 21 0
-22 -23 0
-22 -24 0
-23 -24 0
22 23 24 0
-25 -26 0
-25 -27 0
-26 -27 0
25 26 27 0
-28 -29 0
-28 -30 0
-29 -30 0
28 29 30 0
-31 -32 0
-31 -33 0
-32 -33 0
31 32 33 0
-34 -35 0
-34 -36 0
-35 -36 0
34 35 36 0
-37 -38 0
-37 -39 0
-38 -39 0
37 38 39 0
-40 -41 0
-40 -42 0
-41 -42 0
40 41 42 0
-43 -44 0
-43 -45 0
-44 -45 0
43 44 45 0
-46 -47 0
-46 -48 0
-47 -48 0
46 47 48 0
-49 -50 0
-49 -51 0
-50 -51 0
49 50 51 0
-52 -53 0
-52 -54 0
-53 -54 0
52 53 54 0
-55 -56 0
-55 -57 0
-56 -57 0
55 56 57 0
-58 -59 0
-58 -60 0
-59 -60 0
58 59 60 0
-61 -62 0
-61 -63 0
-62 -63 0
61 62 63 0
-64 -65 0
-64 -66 0
-65 -66 0
64 65 66 0
-67 -68 0
-67 -69 0
-68 -69 0
67 68 69 0
-70 -71 0
-70 -72 0
-71 -72 0
70 71 72 0
-73 -74 0
-73 -75 0
-74 -75 0
73 74 75 0
-76 -77 0
-76 -78 0
-77 -78 0
76 77 78 0
-79 -80 0
-79 -81 0
-80 -81 0
79 80 81 0
-82 -83 0
-82 -84 0
-83 -84 0
82 83 84 0
-85 -86 0
-85 -87 0
-86 -87 0
85 86 87 0
-88 -89 0
-88 -90 0
-89 -90 0
88 89 90 0
-91 -92 0
-91 -93 0
-92 -93 0
91 92 93 0
-94 -95 0
-94 -96 0
-95 -96 0
94 95 96 0
-97 -98 0
-97 -99 0
-98 -99 0
97 98 99 0
-100 -101 0
-100 -102 0
-101 -102 0
100 101 102 0
-103 -104 0
-103 -105 0
-104 -105 0
103 104 105 0
-106 -107 0
-106 -108 0
-107 -108 0
106 107 108 0
-109 -110 0
-109 -111 0
-110 -111 0
109 110 111 0
-112 -113 0
-112 -114 0
-113 -114 0
112 113 114 0
-115 -116 0
-115 -117 0
-116 -117 0
115 116 117 0
-118 -119 0
-118 -120 0
-119 -120 0
118 119 120 0
-121 -122 0
-121 -123 0
-122 -123 0
121 122 123 0
-124 -125 0
-124 -126 0
-125 -126 0
124 125 126 0
-127 -128 0
-127 -129 0
-128 -129 0
127 128 129 0
-130 -131 0
-130 -132 0
-131 -132 0
130 131 132 0
-133 -134 0
-133 -135 0
-134 -135 0
133 134 135 0
-136 -137 0
-136 -138 0
-137 -138 0
136 137 138 0
-139 -140 0
-139 -141 0
-140 -141 0
139 140 141 0
-142 -143 0
-142 -144 0
-143 -144 0
142 143 144 0
-145 -146 0
-145 -147 0
-146 -147 0
145 146 147 0
-148 -149 0
-148 -150 0
-149 -150 0
148 149 150 0
-58 -1 0
-59 -2 0
-60 -3 0
-70 -1 0
-71 -2 0
-72 -3 0
-82 -1 0
-83 -2 0
-84 -3 0
-94 -1 0
-95 -2 0
-96 -3 0
-130 -1 0
-131 -2 0
-132 -3 0
-136 -1 0
-137 -2 0
-138 -3 0
-142 -1 0
-143 -2 0
-144 -3 0
-94 -4 0
-95 -5 0
-96 -6 0
-106 -4 0
-107 -5 0
-108 -6 0
-109 -4 0
-110 -5 0
-111 -6 0
-133 -4 0
-134 -5 0
-135 -6 0
-67 -7 0
-68 -8 0
-69 -9 0
-70 -7 0
-71 -8 0
-72 -9 0
-73 -7 0
-74 -8 0
-75 -9 0
-100 -7 0
-101 -8 0
-102 -9 0
-115 -7 0
-116 -8 0
-117 -9 0
-121 -7 0
-122 -8 0
-123 -9 0
-145 -7 0
-146 -8 0
-147 -9 0
-103 -10 0
-104 -11 0
-105 -12 0
-121 -10 0
-122 -11 0
-123 -12 0
-130 -10 0
-131 -11 0
-132 -12 0
-142 -10 0
-143 -11 0
-144 -12 0
-70 -13 0
-71 -14 0
-72 -15 0
-85 -13 0
-86 -14 0
-87 -15 0
-115 -13 0
-116 -14 0
-117 -15 0
-124 -13 0
-125 -14 0
-126 -15 0
-136 -13 0
-137 -14 0
-138 -15 0
-58 -16 0
-59 -17 0
-60 -18 0
-73 -16 0
-74 -17 0
-75 -18 0
-76 -16 0
-77 -17 0
-78 -18 0
-121 -16 0
-122 -17 0
-123 -18 0
-139 -16 0
-140 -17 0
-141 -18 0
-55 -19 0
-56 -20 0
-57 -21 0
-64 -19 0
-65 -20 0
-66 -21 0
-73 -19 0
-74 -20 0
-75 -21 0
-76 -19 0
-77 -20 0
-78 -21 0
-136 -19 0
-137 -20 0
-138 -21 0
-58 -22 0
-59 -23 0
-60 -24 0
-61 -22 0
-62 -23 0
-63 -24 0
-64 -22 0
-65 -23 0
-66 -24 0
-88 -22 0
-89 -23 0
-90 -24 0
-106 -22 0
-107 -23 0
-108 -24 0
-139 -22 0
-140 -23 0
-141 -24 0
-64 -25 0
-65 -26 0
-66 -27 0
-100 -25 0
-101 -26 0
-102 -27 0
-115 -25 0
-116 -26 0
-117 -27 0
-121 -25 0
-122 -26 0
-123 -27 0
-73 -28 0
-74 -29 0
-75 -30 0
-130 -28 0
-131 -29 0
-132 -30 0
-79 -31 0
-80 -32 0
-81 -33 0
-82 -31 0
-83 -32 0
-84 -33 0
-112 -31 0
-113 -32 0
-114 -33 0
-127 -31 0
-128 -32 0
-129 -33 0
-145 -31 0
-146 -32 0
-147 -33 0
-76 -34 0
-77 -35 0
-78 -36 0
-88 -34 0
-89 -35 0
-90 -36 0
-100 -34 0
-101 -35 0
-102 -36 0
-52 -37 0
-53 -38 0
-54 -39 0
-76 -37 0
-77 -38 0
-78 -39 0
-88 -37 0
-89 -38 0
-90 -39 0
-97 -37 0
-98 -38 0
-99 -39 0
-109 -37 0
-110 -38 0
-111 -39 0
-124 -37 0
-125 -38 0
-126 -39 0
-67 -40 0
-68 -41 0
-69 -42 0
-70 -40 0
-71 -41 0
-72 -42 0
-82 -40 0
-83 -41 0
-84 -42 0
-100 -40 0
-101 -41 0
-102 -42 0
-139 -40 0
-140 -41 0
-141 -42 0
-115 -43 0
-116 -44 0
-117 -45 0
-124 -43 0
-125 -44 0
-126 -45 0
-139 -43 0
-140 -44 0
-141 -45 0
-142 -43 0
-143 -44 0
-144 -45 0
-61 -49 0
-62 -50 0
-63 -51 0
-64 -49 0
-65 -50 0
-66 -51 0
-124 -49 0
-125 -50 0
-126 -51 0
-142 -49 0
-143 -50 0
-144 -51 0
-148 -49 0
-149 -50 0
-150 -51 0
-112 -52 0
-113 -53 0
-114 -54 0
-121 -52 0
-122 -53 0
-123 -54 0
-133 -52 0
-134 -53 0
-135 -54 0
-148 -52 0
-149 -53 0
-150 -54 0
-106 -55 0
-107 -56 0
-108 -57 0
-136 -55 0
-137 -56 0
-138 -57 0
-109 -58 0
-110 -59 0
-111 -60 0
-115 -58 0
-116 -59 0
-117 -60 0
-136 -58 0
-137 -59 0
-138 -60 0
-145 -58 0
-146 -59 0
-147 -60 0
-103 -61 0
-104 -62 0
-105 -63 0
-127 -61 0
-128 -62 0
-129 -63 0
-145 -61 0
-146 -62 0
-147 -63 0
-106 -64 0
-107 -65 0
-108 -66 0
-139 -64 0
-140 -65 0
-141 -66 0
-145 -64 0
-146 -65 0
-147 -66 0
-106 -67 0
-107 -68 0
-108 -69 0
-136 -67 0
-137 -68 0
-138 -69 0
-106 -70 0
-107 -71 0
-108 -72 0
-130 -73 0
-131 -74 0
-132 -75 0
-142 -73 0
-143 -74 0
-144 -75 0
-139 -76 0
-140 -77 0
-141 -78 0
-148 -76 0
-149 -77 0
-150 -78 0
-145 -79 0
-146 -80 0
-147 -81 0
-121 -82 0
-122 -83 0
-123 -84 0
-124 -82 0
-125 -83 0
-126 -84 0
-103 -85 0
-104 -86 0
-105 -87 0
-115 -88 0
-116 -89 0
-117 -90 0
-142 -88 0
-143 -89 0
-144 -90 0
-112 -91 0
-113 -92 0
-114 -93 0
-121 -91 0
-122 -92 0
-123 -93 0
-127 -91 0
-128 -92 0
-129 -93 0
-136 -91 0
-137 -92 0
-138 -93 0
-109 -94 0
-110 -95 0
-111 -96 0
-121 -94 0
-122 -95 0
-123 -96 0
-139 -94 0
-140 -95 0
-141 -96 0
-148 -94 0
-149 -95 0
-150 -96 0
-142 -97 0
-143 -98 0
-144 -99 0
